   ### Initialization
   atom_style	granular 	# atoms will have coordinates, velocities, atom IDs, types, and diameter, mass, angular velocity
   boundary		p f f 		# periodic in x, fixed in y and z
   newton		off 		# if two particles on different processors, results are not communicated
   atom_modify	map array 	# processors store lookup table of length equal to number of particles
   communicate	single vel yes	# set inter-processor communication
   units		si			# use SI units

   ### Region
   region		reg block 0.0 0.02 0.0 0.04 -0.00065 0.00065  units box	# ID style xlo xhi ylo yhi zlo zhi keyword arg (region ID=reg, units defined by the units command)
   create_box	1 reg		# number_of_atom_styles_used region_ID
   neighbor		0.002 bin	# extra_distance_beyond_force_cutoff algorithm_used_to_build_the_neighbor_list
   neigh_modify	delay 0		# delay 0 step since last build

   ### Material properties
   fix			m1 all property/global youngsModulus peratomtype   5.e6				# ID group_ID atom_or_global valid_C++_string style args (fix ID=m1, global)
   fix			m2 all property/global poissonsRatio peratomtype   0.15				# ID group_ID atom_or_global valid_C++_string style args (fix ID=m2, global)
   fix			m3 all property/global coefficientRestitution peratomtypepair 1 0.5	# ID group_ID atom_or_global valid_C++_string style args (fix ID=m3, global)
   fix			m4 all property/global coefficientFriction peratomtypepair 1 0.5	# ID group_ID atom_or_global valid_C++_string style args (fix ID=m4, global)

   ### Contact model
   pair_style	gran model hertz tangential history	# contact model
   pair_coeff	* *			# default
   timestep		0.000001	# timestep is 1 microsec
   fix			1 all nve/sphere	# constant no of particles n; volume v, energy e are regulated; total energy is conserved; temperature t, pressure p are unregulated

   ### Walls
   fix			bottom all wall/gran model hertz tangential history primitive type 1 yplane 0	# bound the simulation domain of the granular system with a frictional wall

   ### Inserted distribution
   # ID group_ID particletemplate/sphere prime_seed_number atom_type arg density arg value radius arg value
   fix			pts1 all particletemplate/sphere 15485863 atom_type 1 density constant 1400 radius constant 0.00042
   fix			pts2 all particletemplate/sphere 49979687 atom_type 1 density constant 1400 radius constant 0.00044
   fix			pts3 all particletemplate/sphere 67867967 atom_type 1 density constant 1400 radius constant 0.00046
   fix			pts4 all particletemplate/sphere 86028121 atom_type 1 density constant 1400 radius constant 0.00048
   fix			pts5 all particletemplate/sphere 67867979 atom_type 1 density constant 1400 radius constant 0.00050
   fix			pts6 all particletemplate/sphere 86028221 atom_type 1 density constant 1400 radius constant 0.00052
   fix			pts7 all particletemplate/sphere 49979693 atom_type 1 density constant 1400 radius constant 0.00054
   fix			pts8 all particletemplate/sphere 86028157 atom_type 1 density constant 1400 radius constant 0.00056
   fix			pts9 all particletemplate/sphere 32452867 atom_type 1 density constant 1400 radius constant 0.00058
   fix			pdd1 all particledistribution/discrete/numberbased 15485867 9 pts1 0.04 pts2 0.08 pts3 0.12 pts4 0.15 pts5 0.22 pts6 0.15 &      
				pts7 0.12 pts8 0.08 pts9 0.04

   ### Insertion
   region		insertion block 0.0001 0.019 0.001 0.039 -0.00005 0.00005 units box	# ID style xlo xhi ylo yhi zlo zhi keyword arg

   fix			ins all insert/pack seed 32452843 distributiontemplate pdd1 insert_every once all_in  no overlapcheck yes &
				maxattempt 20000  region insertion particles_in_region 400	# insert 400 particles following pdd1 once into the 'insertion' region

   ### Computes
   compute		ymax all reduce max y	# ID group_ID reduce which_attribute arg (take vector and pick out the maximum y as scalar, ID=ymax)
   compute		11 all stress/atom pair	# ID group_ID stress/atom arg
   compute		1 all erotate/sphere	# ID group_ID erotate/sphere (compute total rotational KE)

   fix			ts all check/timestep/gran 1000 0.1 0.1	# ID group_ID check/timestep/gran nevery fraction_r fraction_h (estimate Rayleigh-Hertz time every nevery timesteps)
   thermo_style	custom step atoms ke c_ymax	# print thermo info: timestep, no of atoms, ke, 'compute ymax' to screen and log file
   thermo		5000						# output thermo info every 5000 timesteps
   thermo_modify	lost ignore norm no		# ignore lost atoms, don't normalize various thermo info by no of atoms
   restart		5000 restart/file1.restart restart/file2.restart	# write 2 restart files every 5000 timesteps, toggle between them

   ### Insert particles
   run			1	# run 1 timestep to insert particles

   ### Compressing wall
   fix			mesh_top all mesh/surface/stress/servo file meshes/mesh.stl type 1 scale 0.005  move 0.0 0.04 0.0 &
				com 0.01 0.04 0.0 ctrlPV force target_val -1 axis 0.0 1.0 0.0 vel_max 10	# wall's CoM at 0.01,0.04,0; compress along y-axis till force is -1
  
   fix			granwalls all wall/gran model hertz tangential history mesh n_meshes 1 meshes mesh_top	# ... mesh no_of_meshes value meshes mesh_ID (ID=mesh_top)

   ### Dumps
   #dump			dump_position_and_radius all custom 10000 post/position_and_radius*.Shear id radius x y z	# dump info to .Shear
   dump			dump_full_info all custom 10000 post/full_info*.Shear id type radius x y z vx vy vz fx fy fz omegax omegay omegaz	# dump info to .Shear
   #dump			dump_particles all custom/vtk 1000 post/filling_dump_*.vtk id type radius x y z   vx vy vz fx fy fz omegax omegay omegaz   
   dump			dumps_meshes all mesh/gran/VTK 10000 post/mesh*.vtk stress mesh_top	# dump mesh info every 10000 timesteps

   ### Compress particles
   fix			2D all setforce NULL NULL 0	# ID group_ID setforce fx fy fz (ID=2D, NULL means do not alter force in that dimension, zero fz every timestep)

   run			500000		# run 500000 timesteps

   write_restart	restart/insert_and_compress.restart	# write a binary file of the current state of the simulation


